Version identifier: 22.1.1.0 | 2022-11-28 | 9160aff4d
CPXPARAM_ClockType                               1
CPXPARAM_Read_DataCheck                          1
CPXPARAM_Threads                                 1
CPXPARAM_TimeLimit                               7200
CPXPARAM_MIP_Tolerances_AbsMIPGap                0
CPXPARAM_MIP_Tolerances_MIPGap                   0
CPXPARAM_MIP_Tolerances_Integrality              0
Tried aggregator 1 time.
MIP Presolve eliminated 2943 rows and 1 columns.
MIP Presolve modified 1052 coefficients.
Reduced MIP has 5756 rows, 2499 columns, and 17094 nonzeros.
Reduced MIP has 2499 binaries, 0 generals, 0 SOSs, and 0 indicators.
Presolve time = 0.02 sec. (14.08 ticks)
Probing time = 0.01 sec. (2.90 ticks)
Tried aggregator 1 time.
Detecting symmetries...
MIP Presolve eliminated 200 rows and 0 columns.
Reduced MIP has 5556 rows, 2499 columns, and 16094 nonzeros.
Reduced MIP has 2499 binaries, 0 generals, 0 SOSs, and 0 indicators.
Presolve time = 0.02 sec. (13.79 ticks)
Probing time = 0.02 sec. (5.76 ticks)
Clique table members: 9875.
MIP emphasis: balance optimality and feasibility.
MIP search method: dynamic search.
Parallel mode: none, using 1 thread.
Root relaxation solution time = 0.21 sec. (116.96 ticks)

        Nodes                                         Cuts/
   Node  Left     Objective  IInf  Best Integer    Best Bound    ItCnt     Gap

      0     0      200.0000   817                    200.0000     1606         
*     0+    0                          176.0000      200.0000            13.64%
*     0+    0                          200.0000      200.0000             0.00%
      0     0        cutoff            200.0000      200.0000     1606    0.00%
Elapsed time = 1.56 sec. (993.57 ticks, tree = 0.01 MB, solutions = 2)

Root node processing (before b&c):
  Real time             =    1.56 sec. (993.68 ticks)
Sequential b&c:
  Real time             =    0.00 sec. (0.00 ticks)
                          ------------
Total (root+branch&cut) =    1.56 sec. (993.68 ticks)
Solution is feasible.

---------------------
@@@ MIP_optimal
>>> Benchmark sw100-7.cnf k 2 OPT 200 TimeCost 2.1234700679779053 TimeSolve 1.5873398780822754 TimeRead 0.03186821937561035 TimeTrans 0.5042619705200195
